NAME : contrived
COMMENT : 8 fictional locations in a square, optional TSP length = 80
COMMENT : Made up to prove that my GA and SA work
TYPE : TSP
DIMENSION : 8
EDGE_WEIGHT_TYPE : EUC_2D
NODE_COORD_SECTION
1 10 10
2 20 10
3 30 10
4 30 20
5 30 30
6 20 30
7 10 30
8 10 20
EOF